Version identifier: 22.1.0.0 | 2022-03-09 | 1a383f8ce
CPXPARAM_Threads                                 1
CPXPARAM_MIP_Strategy_VariableSelect             3
CPXPARAM_TimeLimit                               599.999982531
1 of 1 MIP starts provided solutions.
MIP start 'm1' defined initial solution with objective 1.0000.
Tried aggregator 1 time.
MIP Presolve eliminated 26 rows and 0 columns.
MIP Presolve modified 189 coefficients.
Reduced MIP has 2695 rows, 6300 columns, and 123429 nonzeros.
Reduced MIP has 6300 binaries, 0 generals, 0 SOSs, and 0 indicators.
Presolve time = 0.14 sec. (224.30 ticks)
Probing time = 0.02 sec. (23.75 ticks)
Tried aggregator 1 time.
Detecting symmetries...
MIP Presolve modified 11 coefficients.
Reduced MIP has 2695 rows, 6300 columns, and 123690 nonzeros.
Reduced MIP has 6300 binaries, 0 generals, 0 SOSs, and 0 indicators.
Presolve time = 0.11 sec. (166.81 ticks)
Probing time = 0.02 sec. (23.77 ticks)
Clique table members: 974.
MIP emphasis: balance optimality and feasibility.
MIP search method: dynamic search.
Parallel mode: none, using 1 thread.
Root relaxation solution time = 6.28 sec. (7528.70 ticks)

        Nodes                                         Cuts/
   Node  Left     Objective  IInf  Best Integer    Best Bound    ItCnt     Gap

*     0+    0                            1.0000    45150.0000              --- 
      0     0      300.0000  1366        1.0000      300.0000    14806     --- 
*     0+    0                           27.0000      300.0000              --- 
*     0+    0                          259.0000      300.0000            15.83%
*     0+    0                          289.0000      300.0000             3.81%
      0     0        cutoff            289.0000      300.0000    14806    3.81%
Detecting symmetries...
      0     2      300.0000   162      289.0000      300.0000    14806    3.81%
Elapsed time = 23.65 sec. (26302.73 ticks, tree = 0.01 MB, solutions = 4)
      1     3      300.0000  1026      289.0000      300.0000    34719    3.81%
      2     4      300.0000   241      289.0000      300.0000    38658    3.81%
      3     5      300.0000  1214      289.0000      300.0000    52040    3.81%
      4     6      300.0000   266      289.0000      300.0000    53308    3.81%
      5     7      300.0000   318      289.0000      300.0000    56192    3.81%
      6     8      300.0000   268      289.0000      300.0000    61158    3.81%
      7     9      300.0000   260      289.0000      300.0000    67924    3.81%
      8    10      300.0000   256      289.0000      300.0000    70440    3.81%
      9    11      300.0000   400      289.0000      300.0000    75138    3.81%
     11    13      300.0000   366      289.0000      300.0000    82509    3.81%
Elapsed time = 52.39 sec. (56588.27 ticks, tree = 0.16 MB, solutions = 4)
     13    15      300.0000   259      289.0000      300.0000    86277    3.81%
     15    17      300.0000   263      289.0000      300.0000    89165    3.81%
     17    19      300.0000   376      289.0000      300.0000    97548    3.81%
     19    21      300.0000   468      289.0000      300.0000   105315    3.81%
     22    24      300.0000   246      289.0000      300.0000   107071    3.81%
     24    26      300.0000   223      289.0000      300.0000   112853    3.81%
     27    29      300.0000   408      289.0000      300.0000   119172    3.81%
     30    32      300.0000   178      289.0000      300.0000   120251    3.81%
     34    36      300.0000   172      289.0000      300.0000   122663    3.81%
     36    38      300.0000   187      289.0000      300.0000   129285    3.81%
Elapsed time = 68.26 sec. (72875.25 ticks, tree = 0.70 MB, solutions = 4)
     38    40      300.0000   211      289.0000      300.0000   134666    3.81%
     40    42      300.0000   276      289.0000      300.0000   139847    3.81%
     42    44      300.0000   854      289.0000      300.0000   145492    3.81%
     44    46      300.0000   195      289.0000      300.0000   149710    3.81%
     46    48      300.0000   197      289.0000      300.0000   154569    3.81%
     48    50      300.0000    94      289.0000      300.0000   160636    3.81%
     50    52      300.0000    92      289.0000      300.0000   164608    3.81%
     51    53      300.0000    86      289.0000      300.0000   168032    3.81%
     53    55      300.0000    84      289.0000      300.0000   169875    3.81%
     54    56      300.0000   119      289.0000      300.0000   172180    3.81%
Elapsed time = 81.47 sec. (86719.57 ticks, tree = 1.12 MB, solutions = 4)
     57    59      300.0000    78      289.0000      300.0000   173761    3.81%
     58    60      300.0000    78      289.0000      300.0000   177013    3.81%
     59    61      300.0000   154      289.0000      300.0000   180286    3.81%
     61    63      300.0000    88      289.0000      300.0000   182804    3.81%
     63    65      300.0000   129      289.0000      300.0000   186207    3.81%
     64    66      300.0000    88      289.0000      300.0000   189232    3.81%
     66    68      300.0000    93      289.0000      300.0000   190460    3.81%
     68    70      300.0000    80      289.0000      300.0000   191954    3.81%
     70    72      300.0000    80      289.0000      300.0000   194548    3.81%
     72    74      300.0000    82      289.0000      300.0000   199487    3.81%
Elapsed time = 108.35 sec. (114223.51 ticks, tree = 1.56 MB, solutions = 4)
     74    76      300.0000   936      289.0000      300.0000   211056    3.81%
     75    77      300.0000   182      289.0000      300.0000   216270    3.81%
     78    80      300.0000   121      289.0000      300.0000   217257    3.81%
     80    82      300.0000   197      289.0000      300.0000   225806    3.81%
     82    84      300.0000   169      289.0000      300.0000   228029    3.81%
     85    87      300.0000   103      289.0000      300.0000   229128    3.81%
     88    90      300.0000    75      289.0000      300.0000   237213    3.81%
     91    93      300.0000    56      289.0000      300.0000   237874    3.81%
     95    97      300.0000    41      289.0000      300.0000   239015    3.81%
     97    99      300.0000    37      289.0000      300.0000   243234    3.81%
Elapsed time = 123.75 sec. (130111.25 ticks, tree = 2.08 MB, solutions = 4)
     99   101      300.0000    35      289.0000      300.0000   245231    3.81%
    100   102      300.0000    73      289.0000      300.0000   250140    3.81%
    101   103      300.0000    20      289.0000      300.0000   253078    3.81%
*   102     1      integral     0      300.0000      300.0000   253085    0.00%

Root node processing (before b&c):
  Real time             =   23.50 sec. (26150.13 ticks)
Sequential b&c:
  Real time             =  103.42 sec. (107454.86 ticks)
                          ------------
Total (root+branch&cut) =  126.92 sec. (133604.99 ticks)
Primal:	300
Dual:	300
Status:	Optimal
Time:	126.95
Sequence:
	3
	12
	0
	7
	11
	6
	12
	0
	11
	4
	14
	12
	11
	0
	13
	5
	1
	8
	2
	18
	1
	5
	2
	8
	19
	14
	13
	12
	19
	16
	13
	6
	0
	1
	2
	9
	4
	1
	2
	9
	6
	3
	10
	0
	18
	3
	6
	2
	12
	13
	19
	5
	16
	12
	19
	13
	14
	0
	17
	7
	14
	18
	17
	12
	4
	18
	3
	10
	12
	4
	19
	9
	10
	15
	3
	4
	7
	12
	17
	6
	7
	13
	17
	15
	6
	18
	11
	16
	15
	6
	11
	18
	2
	15
	1
	18
	7
	0
	1
	15
	4
	13
	17
	14
	15
	18
	3
	8
	14
	12
	3
	4
	16
	5
	12
	3
	7
	8
	5
	1
	2
	18
	8
	11
	6
	0
	14
	17
	7
	6
	0
	1
	0
	7
	6
	17
	14
	2
	9
	19
	12
	6
	16
	11
	18
	15
	14
	3
	0
	4
	10
	1
	9
	4
	2
	1
	12
	4
	7
	3
	12
	6
	16
	11
	18
	15
	6
	16
	11
	18
	15
	14
	17
	7
	18
	12
	1
	0
	7
	4
	1
	15
	2
	18
	19
	14
	10
	4
	17
	7
	14
	12
	19
	8
	13
	6
	11
	15
	0
	13
	1
	18
	8
	10
	19
	14
	9
	16
	17
	5
	14
	7
	17
	8
	5
	14
	11
	0
	8
	5
	1
	7
	0
	8
	1
	5
	7
	8
	3
	15
	5
	13
	17
	7
	12
	14
	19
	2
	9
	6
	11
	16
	15
	18
	1
	18
	2
	6
	11
	15
	18
	2
	6
	3
	12
	7
	8
	3
	6
	10
	9
	19
	16
	6
	10
	9
	3
	8
	6
	12
	3
	18
	16
	6
	19
	14
	16
	8
	19
	14
	9
	10
	19
	2
	6
	13
	19
	10
	8
	14
	19
	18
	12
	2
	1
	4
	9
	10
	3
	15
